rc1_10_6

VEHICLE
NUMBER   CAPACITY
250     200

CUSTOMER
CUST NO. XCOORD.  YCOORD.  DEMAND  READY TIME DUE DATE  SERVICE TIME

0   250    250     0     0    1821     0
141 294 421 26 1560 1620 10
968 311 422 29 973 1033 10
741 313 391 5 154 214 10
8 328 458 17 753 813 10
4 352 487 27 887 947 10
761 245 461 8 634 694 10
353 351 481 10 307 367 10
710 283 438 3 216 276 10
88 334 403 26 174 234 10
49 340 416 36 306 366 10
409 347 459 25 464 524 10
13 239 486 3 1467 1527 10
256 329 456 19 234 294 10
439 332 459 35 354 414 10
475 277 428 7 475 535 10
893 336 493 20 1478 1538 10
463 318 497 21 839 899 10
617 307 412 8 389 449 10
485 313 493 20 1178 1238 10
656 255 487 19 383 443 10
106 230 487 20 1115 1175 10
324 274 441 12 680 740 10
208 260 472 33 1021 1081 10
378 328 491 21 663 723 10
